! B3LYP 6-31G*
%pal
nprocs 32
end
%maxcore 7000
* xyz -2 1
N 1.328 0.000 0.000
C 2.093 0.001 -1.242
C 1.587 -1.079 -2.194
O 1.855 -2.266 -2.003
C 3.579 -0.216 -0.951
C 4.421 -0.385 -2.195
C 4.757 0.708 -2.984
C 4.880 -1.638 -2.582
C 5.526 0.558 -4.122
C 5.650 -1.797 -3.717
C 5.970 -0.697 -4.484
O 6.736 -0.851 -5.617
H 1.807 0.001 0.855
H 1.965 0.966 -1.709
H 3.960 0.634 -0.406
H 3.694 -1.105 -0.348
H 4.408 1.689 -2.697
H 4.626 -2.499 -1.979
H 5.777 1.420 -4.722
H 5.998 -2.780 -4.002
H 0.712 0.741 0.181
H 0.715 -0.743 0.182
H 6.269 -1.470 -6.246
N 0.854 -0.658 -3.218
C 0.308 -1.588 -4.200
C 1.400 -2.496 -4.757
O 2.550 -2.082 -4.908
C -0.364 -0.821 -5.341
C -1.148 -1.705 -6.285
C -2.231 -2.450 -5.833
C -0.805 -1.796 -7.628
C -2.949 -3.259 -6.692
C -1.519 -2.602 -8.494
C -2.590 -3.331 -8.021
O -3.302 -4.136 -8.881
H 0.674 0.300 -3.317
H -0.433 -2.197 -3.704
H -1.045 -0.095 -4.925
H 0.393 -0.310 -5.916
H -2.510 -2.391 -4.791
H 0.035 -1.224 -7.995
H -3.788 -3.830 -6.322
H -1.237 -2.659 -9.535
H -3.078 -5.091 -8.696
N 1.032 -3.736 -5.060
C 1.978 -4.704 -5.602
C 1.614 -5.076 -7.036
O 1.121 -6.170 -7.313
C 2.013 -5.959 -4.729
C 3.165 -6.879 -5.083
O 4.257 -6.713 -4.501
O 2.975 -7.765 -5.943
H 0.100 -4.006 -4.917
H 2.957 -4.248 -5.600
H 2.115 -5.667 -3.694
H 1.089 -6.503 -4.856
N 1.860 -4.146 -7.970
C 1.565 -4.353 -9.391
C 2.491 -5.382 -10.031
O 2.200 -5.908 -11.104
C 1.795 -2.970 -10.006
C 2.760 -2.303 -9.088
C 2.447 -2.820 -7.711
H 0.538 -4.650 -9.544
H 2.206 -3.080 -11.000
H 0.860 -2.433 -10.054
H 3.770 -2.562 -9.365
H 2.621 -1.232 -9.126
H 3.350 -2.905 -7.126
H 1.735 -2.174 -7.219
N 3.607 -5.663 -9.365
C 4.575 -6.629 -9.871
C 3.938 -8.007 -10.026
O 3.824 -8.531 -11.134
C 5.781 -6.714 -8.933
C 6.800 -7.763 -9.347
C 8.209 -7.412 -8.910
O 8.853 -6.587 -9.591
O 8.666 -7.962 -7.886
H 3.783 -5.209 -8.514
H 4.907 -6.289 -10.840
H 6.273 -5.753 -8.911
H 5.432 -6.953 -7.940
H 6.526 -8.707 -8.900
H 6.785 -7.857 -10.422
N 3.524 -8.590 -8.905
C 2.901 -9.908 -8.914
C 1.434 -9.819 -9.319
O 1.048 -10.279 -10.393
C 3.001 -10.586 -7.535
O 4.374 -10.711 -7.148
C 2.349 -11.960 -7.559
H 3.643 -8.122 -8.052
H 3.427 -10.520 -9.632
H 2.485 -9.972 -6.810
H 2.202 -12.270 -8.582
H 1.394 -11.915 -7.057
H 2.987 -12.670 -7.055
H 4.927 -9.990 -7.580
N 0.620 -9.224 -8.452
C -0.795 -9.085 -8.739
C -1.649 -9.149 -7.488
O -2.715 -9.766 -7.485
H 0.985 -8.876 -7.611
H -0.962 -8.137 -9.227
H -1.095 -9.880 -9.406
N -1.180 -8.512 -6.420
C -1.906 -8.502 -5.156
C -2.126 -7.077 -4.660
O -1.182 -6.296 -4.550
C -1.158 -9.301 -4.072
O -0.791 -10.589 -4.579
C -2.021 -9.466 -2.830
H -0.325 -8.038 -6.484
H -2.867 -8.968 -5.319
H -0.263 -8.760 -3.801
H -3.053 -9.585 -3.122
H -1.922 -8.592 -2.204
H -1.699 -10.339 -2.282
H -0.100 -10.496 -5.304
N -3.377 -6.747 -4.362
C -3.721 -5.415 -3.876
C -3.164 -5.186 -2.475
O -3.769 -5.592 -1.483
C -5.239 -5.227 -3.872
C -5.680 -3.939 -4.500
C -6.525 -3.793 -5.563
C -5.296 -2.618 -4.105
N -6.689 -2.460 -5.852
C -5.947 -1.719 -4.972
C -4.467 -2.107 -3.103
C -5.792 -0.339 -4.866
C -4.315 -0.737 -2.999
C -4.975 0.134 -3.876
H -4.088 -7.414 -4.470
H -3.280 -4.694 -4.549
H -5.697 -6.038 -4.418
H -5.593 -5.239 -2.851
H -6.987 -4.614 -6.089
H -7.250 -2.099 -6.572
H -3.950 -2.762 -2.418
H -6.295 0.346 -5.533
H -3.678 -0.324 -2.231
H -4.827 1.196 -3.757
N -2.010 -4.533 -2.402
C -1.371 -4.252 -1.122
C -1.425 -2.762 -0.801
O -1.516 -2.370 0.361
C 0.083 -4.729 -1.138
C 0.257 -6.158 -0.677
C 0.281 -6.474 0.676
C 0.396 -7.193 -1.594
C 0.440 -7.779 1.102
C 0.554 -8.500 -1.177
C 0.576 -8.788 0.172
O 0.734 -10.089 0.592
H -1.576 -4.234 -3.228
H -1.908 -4.794 -0.357
H 0.467 -4.657 -2.144
H 0.669 -4.096 -0.488
H 0.174 -5.681 1.402
H 0.378 -6.964 -2.650
H 0.457 -8.005 2.158
H 0.661 -9.291 -1.905
O -1.392 -1.790 -1.558
H 0.498 -10.706 -0.157
*
